101 42 44 95 76 43 93 60 105 81 10 19 59 77 23 89 121 53 50 55 36 15 49 33 73 130 5 88 14 1 68 24 98 90 6 79 48 104 29 32 127 20 126 40 26 25 28 27 84 4 47 123 83 72 85 125 96 37 110 38 108 78 69 70 114 74 3 30 18 62 116 92 39 54 82 51 120 97 109 22 100 9 111 8 99 63 107 35 12 16 58 66 124 67 21 91 87 13 122 94 71 64 115 103 102 86 57 117 80 118 113 41 11 129 112 7 45 65 61 52 34 17 128 2 46 56 119 75 31 106 